NAME : C8.644625.tour
COMMENT : Cost = 0_644625
COMMENT : Found by LKH [Keld Helsgaun] Mon Dec 18 22:32:39 2017
TYPE : TOUR
DIMENSION : 109
TOUR_SECTION
1
95
96
60
93
98
88
43
16
44
15
45
39
103
54
59
41
22
74
73
5
26
56
55
25
30
102
53
32
89
8
83
49
48
37
50
65
106
27
13
81
69
78
4
80
79
35
36
72
66
104
14
3
58
42
23
75
76
57
24
40
68
109
7
97
100
94
99
38
101
92
86
62
17
87
107
29
77
51
34
82
10
52
21
67
108
28
70
2
71
31
11
63
20
12
64
91
33
105
90
19
84
61
6
85
18
46
9
47
-1
EOF
